(set-info :smt-lib-version 2.6)
(set-logic QF_UFLRA)
(set-info :source |
MathSat group

|)
(set-info :category "random")
(set-info :status sat)
(declare-fun x0 () Real)
(declare-fun x1 () Real)
(declare-fun x2 () Real)
(declare-fun x3 () Real)
(declare-fun x4 () Real)
(declare-fun x5 () Real)
(declare-fun x6 () Real)
(declare-fun x7 () Real)
(declare-fun x8 () Real)
(declare-fun x9 () Real)
(declare-fun x10 () Real)
(declare-fun x11 () Real)
(declare-fun x12 () Real)
(declare-fun x13 () Real)
(declare-fun x14 () Real)
(declare-fun x15 () Real)
(declare-fun x16 () Real)
(declare-fun x17 () Real)
(declare-fun x18 () Real)
(declare-fun x19 () Real)
(declare-fun x20 () Real)
(declare-fun x21 () Real)
(declare-fun x22 () Real)
(declare-fun x23 () Real)
(declare-fun x24 () Real)
(declare-fun x25 () Real)
(declare-fun x26 () Real)
(declare-fun x27 () Real)
(declare-fun x28 () Real)
(declare-fun x29 () Real)
(declare-fun x30 () Real)
(declare-fun x31 () Real)
(declare-fun x32 () Real)
(declare-fun x33 () Real)
(declare-fun x34 () Real)
(declare-fun x35 () Real)
(declare-fun x36 () Real)
(declare-fun x37 () Real)
(declare-fun x38 () Real)
(declare-fun x39 () Real)
(declare-fun f0_1 (Real) Real)
(declare-fun f0_2 (Real Real) Real)
(declare-fun f0_3 (Real Real Real) Real)
(declare-fun f0_4 (Real Real Real Real) Real)
(declare-fun P0 () Bool)
(declare-fun P1 () Bool)
(declare-fun P2 () Bool)
(declare-fun P3 () Bool)
(declare-fun P4 () Bool)
(declare-fun P5 () Bool)
(declare-fun P6 () Bool)
(declare-fun P7 () Bool)
(declare-fun P8 () Bool)
(declare-fun P9 () Bool)
(declare-fun P10 () Bool)
(declare-fun P11 () Bool)
(declare-fun P12 () Bool)
(declare-fun P13 () Bool)
(declare-fun P14 () Bool)
(declare-fun P15 () Bool)
(declare-fun P16 () Bool)
(declare-fun P17 () Bool)
(declare-fun P18 () Bool)
(declare-fun P19 () Bool)
(declare-fun P20 () Bool)
(declare-fun P21 () Bool)
(declare-fun P22 () Bool)
(declare-fun P23 () Bool)
(declare-fun P24 () Bool)
(declare-fun P25 () Bool)
(declare-fun P26 () Bool)
(declare-fun P27 () Bool)
(declare-fun P28 () Bool)
(declare-fun P29 () Bool)
(declare-fun P30 () Bool)
(declare-fun P31 () Bool)
(declare-fun P32 () Bool)
(declare-fun P33 () Bool)
(declare-fun P34 () Bool)
(declare-fun P35 () Bool)
(declare-fun P36 () Bool)
(declare-fun P37 () Bool)
(declare-fun P38 () Bool)
(declare-fun P39 () Bool)
(assert (let ((?v_81 (< (- (- (* 41 x21) (* 49 x26)) (* 7 x8)) 57)) (?v_64 (<= (- (- (* 3 x13) (* 38 x9)) (* 27 x15)) 48)) (?v_166 (= (- (+ (* 39 x18) (* 34 x27)) (* 28 x5)) 53)) (?v_75 (* 40 x12)) (?v_60 (* 12 x11)) (?v_143 (< (+ (- (* 3 x7) (* 2 x35)) (* 57 x38)) 8))) (let ((?v_145 (< (- (+ (* 52 x33) (* 29 x26)) ?v_60) 47)) (?v_123 (< (- (+ (* 15 x12) (* 26 x33)) (* 53 x1)) 9)) (?v_176 (distinct x23 x30)) (?v_42 (f0_1 x19))) (let ((?v_5 (distinct ?v_42 (f0_2 x39 x5))) (?v_62 (distinct x17 x11)) (?v_55 (= x22 (f0_1 x0))) (?v_35 (distinct (f0_2 x17 x16) x10)) (?v_3 (= x2 x30)) (?v_14 (= x32 x38)) (?v_86 (f0_1 x29))) (let ((?v_22 (= (f0_2 x22 x22) ?v_86)) (?v_10 (f0_1 x3))) (let ((?v_13 (distinct ?v_10 x36)) (?v_16 (f0_1 x27))) (let ((?v_67 (= (f0_2 x1 x1) ?v_16)) (?v_59 (= (f0_2 x21 x35) (f0_2 x16 x16))) (?v_69 (f0_1 x15))) (let ((?v_73 (distinct ?v_69 x25)) (?v_120 (distinct ?v_42 (f0_2 x14 x31))) (?v_18 (distinct (f0_2 x26 x28) (f0_1 x38))) (?v_27 (f0_1 x12))) (let ((?v_40 (= ?v_16 ?v_27)) (?v_54 (= ?v_69 (f0_2 x26 x10))) (?v_102 (distinct ?v_86 (f0_1 x17))) (?v_171 (= (f0_2 x5 x12) x20)) (?v_17 (distinct x1 (f0_1 x9))) (?v_72 (= (f0_2 x10 x12) x28)) (?v_20 (= x1 (f0_1 x18))) (?v_0 (f0_1 x2))) (let ((?v_15 (distinct ?v_0 (f0_2 x39 x36))) (?v_19 (f0_1 x13))) (let ((?v_29 (distinct ?v_19 ?v_0)) (?v_93 (= (f0_1 x14) ?v_10)) (?v_140 (distinct x2 (f0_2 x9 x15))) (?v_162 (= (f0_2 x13 x14) (f0_2 x21 x36))) (?v_164 (distinct x27 ?v_10)) (?v_189 (distinct ?v_27 (f0_2 x6 x5))) (?v_28 (distinct (f0_2 x31 x37) (f0_1 x6))) (?v_43 (f0_1 x23))) (let ((?v_179 (distinct ?v_43 x23)) (?v_65 (= (f0_1 x32) ?v_43)) (?v_76 (= (f0_2 x33 x19) (f0_1 x4))) (?v_138 (distinct x2 (f0_2 x39 x9))) (?v_74 (distinct (f0_2 x26 x29) (f0_2 x4 x32))) (?v_122 (distinct x15 x18)) (?v_1 (= ?v_19 ?v_0)) (?v_26 (distinct (f0_1 x25) (f0_2 x3 x11))) (?v_11 (= x22 (f0_2 x7 x28))) (?v_119 (distinct x30 (f0_2 x23 x14))) (?v_7 (= (f0_1 x10) x16))) (let ((?v_208 (not ?v_1)) (?v_149 (not P39)) (?v_2 (not P2)) (?v_91 (not ?v_15)) (?v_30 (not P3)) (?v_156 (not ?v_3))) (let ((?v_173 (or ?v_1 ?v_156)) (?v_90 (not ?v_5)) (?v_36 (not P38))) (let ((?v_194 (or ?v_36 P38)) (?v_177 (not P8)) (?v_21 (not P14)) (?v_8 (not P30)) (?v_114 (not ?v_67)) (?v_32 (not ?v_164)) (?v_23 (not P25)) (?v_118 (not ?v_17)) (?v_84 (not ?v_11)) (?v_151 (not ?v_14)) (?v_51 (not ?v_18)) (?v_98 (not ?v_20)) (?v_56 (not P5)) (?v_45 (not P32)) (?v_24 (not ?v_64))) (let ((?v_150 (or ?v_24 ?v_35)) (?v_44 (not P1)) (?v_109 (not P22)) (?v_178 (not ?v_189)) (?v_37 (not P4)) (?v_100 (not ?v_119)) (?v_195 (not P34)) (?v_46 (not ?v_28)) (?v_127 (not P21)) (?v_87 (not ?v_72)) (?v_68 (not ?v_35)) (?v_47 (not ?v_171)) (?v_49 (not ?v_55)) (?v_48 (not ?v_120)) (?v_116 (not ?v_62)) (?v_159 (not ?v_179)) (?v_104 (not P18)) (?v_70 (not P15)) (?v_58 (not ?v_162)) (?v_52 (not ?v_140)) (?v_180 (not P36)) (?v_141 (not ?v_54)) (?v_153 (not ?v_59)) (?v_155 (not P29)) (?v_136 (not ?v_145)) (?v_205 (not ?v_143)) (?v_94 (not ?v_122)) (?v_106 (not ?v_65)) (?v_168 (not ?v_73)) (?v_163 (not P31)) (?v_83 (not P26)) (?v_80 (not P7)) (?v_95 (not ?v_26)) (?v_144 (not P33)) (?v_77 (not ?v_22)) (?v_134 (not P19)) (?v_96 (not ?v_76)) (?v_152 (not ?v_81)) (?v_135 (not ?v_166)) (?v_193 (not P28)) (?v_157 (not ?v_123)) (?v_185 (or P25 ?v_20)) (?v_97 (not ?v_93)) (?v_107 (not ?v_7)) (?v_165 (not P24)) (?v_129 (not P10)) (?v_167 (not ?v_29)) (?v_146 (not P20)) (?v_191 (not P6)) (?v_182 (not P35)) (?v_137 (not ?v_13)) (?v_154 (not P23)) (?v_169 (not ?v_138)) (?v_184 (not P13)) (?v_186 (not ?v_74)) (?v_181 (not P0)) (?v_198 (not ?v_40)) (?v_209 (not P16)) (?v_196 (not ?v_176)) (?v_207 (not P17)) (?v_197 (not P37)) (?v_204 (not P27)) (?v_213 (not P9)) (?v_214 (not P12)) (?v_12 (<= (+ (* 33 x26) (* 2 x24) (* 55 x23)) 32)) (?v_125 (<= (- (+ x21 (* 34 x19)) (* 45 x39)) 13))) (let ((?v_105 (not ?v_125)) (?v_53 (<= (- (* 50 x3) (* 33 x39)) 59))) (let ((?v_130 (not ?v_53)) (?v_148 (< (+ (* 50 x17) (* 53 x15) (* 7 x13)) 6))) (let ((?v_78 (not ?v_148)) (?v_79 (< (- ?v_75 (* 23 x18)) 6)) (?v_192 (not ?v_12))) (let ((?v_160 (not ?v_79)) (?v_6 (< (+ (* 38 x3) x34) (- 44))) (?v_89 (< (- (- (* (- 1) x10) (* 25 x2)) (* 3 x30)) (- 51)))) (let ((?v_4 (not ?v_89)) (?v_139 (< (- (+ (* (- 32) x30) ?v_75) (* 32 x8)) (- 12)))) (let ((?v_132 (not ?v_139)) (?v_128 (< (- (+ (* 25 x22) (* 5 x30)) (* 48 x39)) (- 53)))) (let ((?v_85 (not ?v_128)) (?v_71 (< (+ (- (* (- 30) x9) (* 13 x32)) (* 24 x18)) (- 49)))) (let ((?v_111 (not ?v_71)) (?v_174 (< (- (- (* (- 7) x7) (* 4 x25)) ?v_60) (- 19)))) (let ((?v_34 (not ?v_174)) (?v_57 (<= (- (+ (* (- 55) x1) (* 6 x15)) (* 27 x11)) 0)) (?v_9 (not ?v_6)) (?v_66 (= (- (+ (* (- 8) x5) (* 31 x20)) (* 26 x11)) (- 13)))) (let ((?v_115 (not ?v_66)) (?v_33 (<= (- (+ (* 53 x20) (* 44 x4)) 0) (- 26)))) (let ((?v_126 (not ?v_33)) (?v_25 (<= (- (- (* 8 x19) (* 42 x31)) (* 17 x26)) (- 46)))) (let ((?v_39 (not ?v_25)) (?v_110 (= (+ (* 35 x18) (* 46 x38) (* 15 x13)) (- 44)))) (let ((?v_142 (not ?v_110)) (?v_161 (<= (- (+ (* (- 26) x31) (* 20 x7)) (* 48 x36)) (- 44))) (?v_117 (< (+ (- (* (- 10) x12) (* 40 x11)) (* 21 x39)) 28))) (let ((?v_38 (not ?v_117)) (?v_31 (< (- (- (* (- 43) x14) (* 18 x34)) (* 41 x8)) (- 50))) (?v_50 (<= (+ (- (* (- 11) x29) (* 13 x28)) (* 37 x26)) 43))) (let ((?v_112 (not ?v_50)) (?v_158 (<= (- (- (* (- 34) x33) (* 23 x27)) (* 17 x33)) (- 7)))) (let ((?v_99 (not ?v_158)) (?v_187 (< (+ (- (* (- 41) x17) (* 11 x34)) (* 52 x26)) 25))) (let ((?v_41 (not ?v_187)) (?v_88 (<= (+ (* (- 54) x2) (* 7 x34) (* 46 x23)) 0)) (?v_61 (<= (- (- (* 48 x12) (* 36 x12)) (* 9 x18)) (- 17))) (?v_212 (<= (- (+ (* (- 1) x33) (* 35 x37)) (* 36 x38)) 19))) (let ((?v_190 (not ?v_212)) (?v_82 (not ?v_31)) (?v_103 (not ?v_57)) (?v_202 (<= (+ (- (* 50 x27) (* 45 x16)) (* 39 x6)) (- 26)))) (let ((?v_63 (not ?v_202)) (?v_201 (< (- (- (* (- 2) x23) (* 55 x26)) (* 2 x5)) 51))) (let ((?v_147 (not ?v_201)) (?v_121 (< (+ (* 11 x35) (* 9 x6) (* 36 x2)) (- 17))) (?v_92 (not ?v_88)) (?v_170 (< (- (- (* (- 26) x7) (* 21 x38)) (* 10 x2)) (- 40)))) (let ((?v_133 (not ?v_170)) (?v_113 (= (- (+ (* 43 x16) (* 25 x6)) (* 25 x36)) (- 3)))) (let ((?v_101 (not ?v_113)) (?v_188 (distinct (- (+ (* (- 20) x2) (* 52 x30)) (* 16 x10)) 52))) (let ((?v_124 (not ?v_188)) (?v_108 (<= (- (+ ?v_60 (* 42 x22)) (* 46 x13)) (- 34)))) (let ((?v_131 (not ?v_108)) (?v_206 (or ?v_110 ?v_133)) (?v_199 (or ?v_34 ?v_100)) (?v_172 (not ?v_121)) (?v_183 (<= (- (+ (* 5 x23) (* 18 x6)) (* 53 x24)) (- 37)))) (let ((?v_175 (not ?v_183)) (?v_200 (not ?v_61)) (?v_210 (<= (+ (* (- 38) x29) (* 35 x24) (* 18 x3)) (- 19)))) (let ((?v_203 (not ?v_210)) (?v_211 (not ?v_161))) (and (and (and (and (and (and (and (and (and (and (and (and (and (and (and (and (and (and (and (and (and (and (and (and (and (and (and (and (and (and (and (and (and (and (and (and (and (and (and (and (and (and (and (and (and (and (and (and (and (and (and (and (and (and (and (and (and (and (and (and (and (and (and (and (and (and (and (and (and (and (and (and (and (and (and (and (and (and (and (and (and (and (and (and (and (and (and (and (and (and (and (and (and (and (and (and (and (and (and (and (and (and (and (and (and (and (and (and (and (and (and (and (and (and (and (and (and (and (and (and (and (and (and (and (and (and (and (and (and (and (and (and (and (and (and (and (and (and (and (and (and (and (and (and (and (and (and (and (and (and (and (and (and (and (and (and (and (and (and (and (and (and (and (and (and (and (and (and (and (and (and (and (and (and (and (and (and (and (and (and (and (and (and (and (and (and (and (and (and (and (and (and (and (and (and (and (and (and (and (and (and (and (and (and (and (and (and (and (and (and (and (and (and (and (and (and (and (and (and (and (and (and (and (and (and (and (and (and (and (and (and (and (and (and (and (and (and (and (and (and (and (and (and (and (and (and (and (and (and (and (and (and (and (and (and (and (and (and (and (and (and (and (and (and (and (and (and (and (and (and (and (and (and (and (and (and (and (and (and (and (and (and (and (and (and (and (and (and (and (and (and (and (and (and (and (and (and (and (and (and (and (and (and (and (and (and (and (and (and (and (and (and (and (and (and (and (and (and (and (and (and (and (and (and (and (and (and (and (and (and (and (and (and (and (and (and (and (and (and (and (and (and (and (and (and (and (and (and (and (and (and (and (and (and (and (and (and (and (and (and (and (and (and (and (and (and (and (and (and (and (and (and (and (and (and (and (and (and (and (and (and (and (and (and (and (and (and (and (and (and (and (and (and (and (and (and (and (and (and (and (and (and (and (and (and (and (and (and (and (and (and (and (and (and (and (and (and (and (and (and (and (and (and (and (and (and (and (and (and (and (and (and (and (and (and (and (and (and (and (and (and (and (and (and (and (and (and (and (and (and (and (and (and (and (and (and (and (and (and (and (and (and (and (and (and (and (and (and (and (and (and (and (and (and (and (and (and (and (and (or (or ?v_208 P19) ?v_12) (or (or ?v_149 ?v_6) ?v_4)) (or (or ?v_132 ?v_2) ?v_85)) (or (or ?v_91 ?v_22) ?v_30)) (or ?v_173 P3)) (or (or ?v_90 ?v_2) ?v_3)) (or ?v_194 ?v_111)) (or (or ?v_34 ?v_20) ?v_7)) (or (or P32 ?v_177) P28)) (or (or ?v_4 ?v_21) ?v_5)) (or (or ?v_8 P32) P39)) (or (or P23 ?v_114) ?v_6)) (or (or ?v_57 ?v_14) ?v_9)) (or (or ?v_32 ?v_7) ?v_115)) (or (or ?v_8 ?v_9) ?v_126)) (or (or P4 ?v_11) ?v_13)) (or (or ?v_23 ?v_118) ?v_84)) (or (or ?v_12 ?v_74) ?v_18)) (or (or ?v_13 P13) ?v_151)) (or (or P13 ?v_15) ?v_39)) (or (or ?v_142 ?v_40) ?v_17)) (or (or ?v_51 ?v_29) ?v_98)) (or (or P9 ?v_26) ?v_21)) (or (or ?v_161 ?v_56) ?v_45)) (or (or ?v_28 ?v_38) ?v_22)) (or ?v_150 ?v_23)) (or (or P27 ?v_44) ?v_24)) (or (or ?v_59 P37) ?v_25)) (or (or ?v_26 ?v_109) P31)) (or (or ?v_178 ?v_37) ?v_100)) (or (or ?v_195 ?v_46) ?v_127)) (or (or ?v_17 ?v_31) ?v_29)) (or (or ?v_30 ?v_23) ?v_2)) (or (or ?v_31 ?v_32) ?v_33)) (or (or ?v_34 ?v_26) ?v_3)) (or (or ?v_35 P34) P0)) (or (or ?v_112 P22) ?v_87)) (or (or ?v_20 P14) ?v_68)) (or (or ?v_32 P15) ?v_23)) (or (or ?v_99 ?v_7) ?v_36)) (or (or ?v_47 ?v_41) P6)) (or (or ?v_37 ?v_38) ?v_39)) (or (or ?v_49 ?v_33) ?v_40)) (or (or ?v_41 ?v_88) ?v_48)) (or (or ?v_9 ?v_116) ?v_159)) (or (or P12 ?v_104) ?v_70)) (or (or ?v_65 ?v_44) P38)) (or (or ?v_105 ?v_58) ?v_61)) (or (or ?v_52 P31) ?v_45)) (or (or ?v_9 ?v_190) ?v_11)) (or (or ?v_46 ?v_47) ?v_14)) (or (or ?v_48 P25) ?v_49)) (or (or ?v_130 ?v_50) ?v_25)) (or (or ?v_82 ?v_180) ?v_51)) (or (or ?v_52 ?v_53) ?v_78)) (or (or ?v_54 ?v_141) ?v_55)) (or (or ?v_56 ?v_103) P21)) (or (or ?v_58 ?v_53) P5)) (or (or P32 P10) ?v_14)) (or (or ?v_26 ?v_153) P37)) (or (or ?v_76 P24) ?v_155)) (or (or ?v_41 ?v_18) ?v_136)) (or (or ?v_61 ?v_18) ?v_33)) (or (or ?v_62 ?v_63) P10)) (or (or ?v_63 ?v_64) ?v_147)) (or (or ?v_205 ?v_17) ?v_94)) (or (or ?v_106 ?v_66) ?v_29)) (or (or ?v_12 ?v_67) ?v_30)) (or (or ?v_67 P28) ?v_68)) (or (or ?v_168 ?v_54) ?v_70)) (or (or ?v_163 ?v_54) ?v_71)) (or (or P25 ?v_21) ?v_83)) (or (or ?v_14 ?v_72) ?v_31)) (or (or ?v_80 P38) ?v_95)) (or (or ?v_4 ?v_73) ?v_74)) (or (or ?v_144 ?v_37) P11)) (or (or P16 ?v_77) ?v_15)) (or (or ?v_40 ?v_79) P19)) (or (or ?v_134 ?v_96) ?v_77)) (or (or ?v_38 ?v_62) ?v_1)) (or (or ?v_78 ?v_93) ?v_77)) (or (or ?v_138 ?v_152) ?v_68)) (or (or ?v_79 P11) ?v_121)) (or (or ?v_80 ?v_15) ?v_81)) (or (or ?v_26 ?v_135) ?v_82)) (or (or ?v_83 ?v_18) ?v_84)) (or (or ?v_85 ?v_44) P18)) (or (or ?v_102 ?v_87) ?v_92)) (or (or ?v_193 ?v_89) ?v_90)) (or (or ?v_77 P29) ?v_91)) (or (or P4 ?v_92) ?v_133)) (or (or ?v_101 ?v_157) ?v_124)) (or ?v_185 ?v_97)) (or (or ?v_89 ?v_94) ?v_107)) (or (or ?v_85 P9) ?v_165)) (or (or ?v_18 ?v_62) ?v_3)) (or (or ?v_1 ?v_54) ?v_44)) (or (or ?v_129 ?v_90) ?v_95)) (or (or ?v_30 P28) ?v_96)) (or (or ?v_54 ?v_97) ?v_50)) (or (or ?v_98 ?v_81) P15)) (or (or P33 ?v_54) P15)) (or (or ?v_3 ?v_46) P18)) (or (or ?v_108 P2) ?v_88)) (or (or ?v_53 P12) ?v_99)) (or (or ?v_100 P21) ?v_4)) (or (or ?v_192 ?v_101) ?v_4)) (or (or ?v_102 ?v_103) ?v_104)) (or (or ?v_62 ?v_1) ?v_36)) (or (or ?v_105 ?v_74) ?v_106)) (or (or ?v_107 ?v_167) ?v_131)) (or (or ?v_92 ?v_109) ?v_110)) (or (or ?v_111 ?v_99) ?v_103)) (or (or ?v_26 P27) ?v_112)) (or (or ?v_84 ?v_113) ?v_114)) (or (or ?v_26 ?v_115) ?v_93)) (or (or ?v_96 ?v_116) ?v_117)) (or (or P5 ?v_103) ?v_146)) (or (or ?v_118 ?v_119) ?v_191)) (or (or ?v_35 ?v_50) ?v_182)) (or (or ?v_120 ?v_121) ?v_122)) (or (or ?v_91 ?v_39) P8)) (or (or ?v_8 ?v_3) ?v_26)) (or (or ?v_99 ?v_123) ?v_124)) (or (or ?v_125 ?v_20) ?v_21)) (or (or ?v_39 ?v_126) ?v_20)) (or (or ?v_127 ?v_82) ?v_44)) (or (or ?v_128 ?v_73) ?v_55)) (or (or ?v_28 P33) ?v_129)) (or (or ?v_49 ?v_137) ?v_71)) (or (or ?v_61 ?v_30) ?v_22)) (or (or P34 ?v_47) ?v_108)) (or (or ?v_76 P1) ?v_123)) (or (or ?v_130 ?v_131) ?v_70)) (or (or ?v_2 ?v_67) ?v_94)) (or (or ?v_70 ?v_132) ?v_39)) (or ?v_206 ?v_154)) (or ?v_199 P5)) (or (or ?v_134 ?v_56) ?v_92)) (or (or ?v_135 ?v_46) ?v_18)) (or (or ?v_136 ?v_137) ?v_160)) (or (or ?v_33 ?v_169) ?v_11)) (or (or ?v_45 ?v_139) ?v_127)) (or (or ?v_140 P23) P7)) (or (or ?v_184 P31) ?v_141)) (or (or P37 ?v_23) ?v_186)) (or (or ?v_122 P18) P21)) (or (or ?v_109 ?v_89) ?v_14)) (or (or ?v_142 P34) ?v_143)) (or (or ?v_144 ?v_128) ?v_21)) (or (or ?v_25 P30) ?v_145)) (or (or ?v_146 P35) ?v_125)) (or (or ?v_147 ?v_48) ?v_21)) (or (or ?v_172 ?v_70) ?v_148)) (or (or P17 ?v_146) ?v_149)) (or (or ?v_145 ?v_130) ?v_114)) (or ?v_150 ?v_145)) (or (or ?v_148 ?v_54) ?v_90)) (or (or P23 ?v_51) ?v_181)) (or (or ?v_151 ?v_117) ?v_119)) (or (or ?v_152 P28) ?v_153)) (or (or P1 ?v_71) ?v_110)) (or (or ?v_133 ?v_47) P4)) (or (or ?v_44 ?v_9) ?v_59)) (or (or P16 ?v_154) ?v_14)) (or (or ?v_113 ?v_155) P12)) (or (or ?v_156 P6) ?v_50)) (or (or ?v_157 ?v_21) ?v_158)) (or (or ?v_57 ?v_57) ?v_159)) (or (or P36 ?v_70) ?v_160)) (or (or ?v_73 ?v_161) ?v_162)) (or (or ?v_139 ?v_163) ?v_164)) (or (or ?v_64 ?v_165) P37)) (or (or ?v_175 P26) ?v_25)) (or (or P16 ?v_119) ?v_105)) (or (or ?v_12 ?v_77) ?v_20)) (or (or ?v_97 ?v_166) ?v_153)) (or (or ?v_167 ?v_102) P15)) (or (or ?v_3 P38) P3)) (or (or ?v_91 ?v_98) ?v_79)) (or (or ?v_168 ?v_160) ?v_105)) (or (or ?v_135 ?v_176) ?v_169)) (or (or ?v_163 P26) P9)) (or (or P21 ?v_8) ?v_157)) (or (or ?v_126 P34) ?v_28)) (or (or ?v_170 P33) ?v_171)) (or (or ?v_164 ?v_172) ?v_18)) (or ?v_173 ?v_145)) (or (or ?v_35 P13) ?v_149)) (or (or ?v_52 ?v_73) P33)) (or (or ?v_11 ?v_89) ?v_14)) (or (or ?v_174 P15) P8)) (or (or ?v_109 ?v_70) ?v_44)) (or (or ?v_198 ?v_55) ?v_138)) (or (or P26 ?v_54) ?v_133)) (or (or ?v_58 ?v_124) ?v_175)) (or (or ?v_113 ?v_55) ?v_155)) (or (or ?v_107 ?v_159) ?v_174)) (or (or ?v_14 ?v_176) P23)) (or (or ?v_118 ?v_104) ?v_172)) (or (or ?v_52 ?v_145) P12)) (or (or ?v_78 ?v_6) ?v_127)) (or (or ?v_47 ?v_175) ?v_53)) (or (or ?v_39 ?v_23) ?v_110)) (or (or ?v_103 ?v_177) ?v_161)) (or (or ?v_101 ?v_178) ?v_179)) (or (or ?v_39 ?v_148) ?v_83)) (or (or P25 P32) ?v_21)) (or (or ?v_135 ?v_117) ?v_164)) (or (or P9 ?v_107) ?v_176)) (or (or P8 ?v_55) ?v_180)) (or (or ?v_140 ?v_156) ?v_124)) (or (or P28 ?v_93) ?v_144)) (or (or ?v_181 ?v_129) ?v_149)) (or (or ?v_182 ?v_183) P6)) (or (or ?v_78 ?v_109) P10)) (or (or ?v_73 ?v_98) ?v_103)) (or (or ?v_184 ?v_90) P31)) (or ?v_185 ?v_179)) (or (or ?v_167 ?v_186) ?v_80)) (or (or ?v_153 ?v_209) ?v_155)) (or (or ?v_35 ?v_106) ?v_111)) (or (or ?v_103 ?v_14) P10)) (or (or P1 ?v_9) ?v_62)) (or (or ?v_152 P37) ?v_29)) (or (or ?v_35 ?v_132) ?v_187)) (or (or P38 ?v_46) ?v_24)) (or (or P31 ?v_25) ?v_144)) (or (or ?v_159 ?v_94) ?v_50)) (or (or ?v_95 ?v_146) ?v_200)) (or (or P28 ?v_122) ?v_111)) (or (or ?v_151 ?v_188) ?v_3)) (or (or ?v_125 ?v_28) ?v_189)) (or (or ?v_80 ?v_179) ?v_100)) (or (or ?v_131 ?v_17) P0)) (or (or ?v_78 ?v_48) ?v_167)) (or (or P24 P10) P27)) (or (or (not P11) ?v_196) ?v_36)) (or (or ?v_13 P35) ?v_132)) (or (or ?v_148 ?v_174) ?v_93)) (or (or ?v_128 ?v_164) ?v_71)) (or (or ?v_80 P23) ?v_130)) (or (or P17 ?v_98) ?v_178)) (or (or P34 ?v_149) ?v_77)) (or (or ?v_126 ?v_146) P27)) (or (or ?v_100 ?v_203) P17)) (or (or ?v_108 ?v_180) ?v_157)) (or (or P15 ?v_90) ?v_207)) (or (or ?v_139 ?v_23) ?v_115)) (or (or ?v_22 ?v_66) ?v_32)) (or (or P29 ?v_141) ?v_190)) (or (or ?v_187 ?v_55) P28)) (or (or P22 P10) ?v_116)) (or (or ?v_120 ?v_108) ?v_124)) (or (or P29 ?v_191) ?v_119)) (or (or P27 ?v_36) ?v_34)) (or (or ?v_176 ?v_192) ?v_113)) (or (or ?v_90 ?v_88) ?v_151)) (or (or ?v_5 ?v_184) ?v_24)) (or (or ?v_51 ?v_104) P33)) (or (or ?v_165 ?v_108) ?v_88)) (or (or ?v_146 ?v_119) ?v_197)) (or (or ?v_120 ?v_192) ?v_176)) (or (or P33 ?v_193) ?v_111)) (or (or ?v_68 P34) ?v_147)) (or ?v_194 ?v_97)) (or (or ?v_63 ?v_11) ?v_81)) (or (or ?v_33 ?v_154) ?v_188)) (or (or ?v_37 ?v_96) ?v_30)) (or (or ?v_1 ?v_111) ?v_132)) (or (or ?v_152 ?v_85) ?v_26)) (or (or ?v_103 ?v_84) ?v_101)) (or (or ?v_14 ?v_3) P3)) (or (or ?v_195 P6) ?v_196)) (or (or ?v_102 ?v_197) P5)) (or (or P3 ?v_152) ?v_25)) (or (or ?v_96 ?v_138) ?v_183)) (or (or ?v_198 ?v_93) ?v_80)) (or (or ?v_23 ?v_93) ?v_79)) (or (or P25 P26) ?v_102)) (or (or ?v_9 ?v_51) ?v_134)) (or ?v_199 ?v_136)) (or (or P1 ?v_211) ?v_177)) (or (or ?v_78 ?v_74) ?v_168)) (or (or P12 ?v_123) ?v_200)) (or (or ?v_165 ?v_74) ?v_103)) (or (or ?v_107 ?v_84) P5)) (or (or P14 ?v_62) ?v_120)) (or (or ?v_135 ?v_78) P3)) (or (or ?v_51 ?v_162) ?v_165)) (or (or ?v_90 P27) ?v_118)) (or (or P27 ?v_55) ?v_139)) (or (or ?v_63 P4) ?v_80)) (or (or ?v_48 ?v_193) ?v_200)) (or (or ?v_44 ?v_47) ?v_159)) (or (or ?v_190 ?v_201) ?v_183)) (or (or ?v_166 ?v_81) P29)) (or (or P35 ?v_89) ?v_204)) (or (or P21 ?v_145) ?v_164)) (or (or ?v_71 P13) ?v_152)) (or (or ?v_140 ?v_144) ?v_9)) (or (or P39 P30) ?v_78)) (or (or ?v_28 ?v_125) ?v_132)) (or (or ?v_5 ?v_52) ?v_113)) (or (or ?v_202 ?v_183) ?v_35)) (or (or ?v_9 ?v_93) ?v_154)) (or (or P23 ?v_76) ?v_131)) (or (or ?v_58 ?v_134) ?v_158)) (or (or ?v_29 ?v_163) P9)) (or (or P24 ?v_79) ?v_4)) (or (or ?v_203 ?v_197) ?v_166)) (or (or ?v_190 ?v_31) ?v_130)) (or (or ?v_57 ?v_81) ?v_204)) (or (or P13 ?v_204) ?v_118)) (or (or ?v_91 ?v_162) ?v_200)) (or (or P10 ?v_63) ?v_179)) (or (or P29 ?v_192) ?v_13)) (or (or P1 ?v_70) ?v_178)) (or (or ?v_159 ?v_110) ?v_13)) (or (or ?v_105 ?v_159) ?v_89)) (or (or P26 ?v_61) ?v_45)) (or (or ?v_100 ?v_18) ?v_205)) (or (or ?v_7 ?v_94) P1)) (or (or P1 P15) ?v_155)) (or (or P23 ?v_135) ?v_149)) (or (or ?v_39 ?v_182) ?v_100)) (or (or ?v_44 ?v_164) ?v_76)) (or (or ?v_186 ?v_47) P17)) (or (or ?v_36 P21) P3)) (or (or ?v_145 ?v_31) ?v_151)) (or (or ?v_62 ?v_49) P7)) (or (or ?v_107 ?v_169) ?v_170)) (or ?v_206 ?v_35)) (or (or ?v_158 ?v_68) ?v_207)) (or (or ?v_175 ?v_6) ?v_174)) (or (or ?v_198 P15) P5)) (or (or ?v_79 ?v_177) ?v_183)) (or (or ?v_139 P22) ?v_187)) (or (or ?v_73 ?v_9) ?v_12)) (or (or P17 P24) ?v_208)) (or (or P32 ?v_133) ?v_162)) (or (or P28 P13) ?v_181)) (or (or ?v_201 ?v_108) ?v_123)) (or (or ?v_209 P19) ?v_33)) (or (or ?v_163 P27) ?v_39)) (or (or ?v_99 ?v_115) ?v_176)) (or (or ?v_122 ?v_98) ?v_158)) (or (or ?v_135 ?v_65) ?v_92)) (or (or ?v_35 ?v_142) ?v_190)) (or (or ?v_158 ?v_5) P19)) (or (or ?v_202 ?v_153) ?v_87)) (or (or ?v_213 ?v_53) ?v_188)) (or (or P25 ?v_132) ?v_138)) (or (or ?v_209 ?v_169) ?v_98)) (or (or ?v_114 P34) ?v_159)) (or (or ?v_81 ?v_118) ?v_151)) (or (or ?v_93 ?v_59) ?v_210)) (or (or ?v_44 ?v_49) ?v_1)) (or (or ?v_17 ?v_195) ?v_177)) (or (or P14 ?v_210) ?v_36)) (or (or P2 ?v_119) ?v_17)) (or (or P37 P3) ?v_181)) (or (or ?v_52 ?v_28) ?v_29)) (or (or P14 ?v_71) ?v_53)) (or (or P25 ?v_201) ?v_177)) (or (or P12 ?v_21) ?v_207)) (or (or ?v_157 ?v_197) P12)) (or (or ?v_9 ?v_146) ?v_36)) (or (or ?v_130 ?v_203) ?v_17)) (or (or ?v_208 P29) ?v_167)) (or (or ?v_20 ?v_138) ?v_139)) (or (or ?v_189 ?v_63) ?v_12)) (or (or P2 (not ?v_102)) P6)) (or (or ?v_193 ?v_170) P16)) (or (or ?v_152 P12) P22)) (or (or ?v_28 ?v_29) ?v_202)) (or (or ?v_116 P27) ?v_196)) (or (or ?v_49 ?v_63) ?v_136)) (or (or ?v_165 ?v_149) ?v_154)) (or (or ?v_168 ?v_78) ?v_41)) (or (or ?v_192 P17) ?v_145)) (or (or P8 ?v_196) ?v_162)) (or (or P15 ?v_93) ?v_139)) (or (or ?v_101 ?v_128) P22)) (or (or ?v_63 ?v_196) ?v_133)) (or (or ?v_59 ?v_80) ?v_103)) (or (or ?v_211 ?v_214) ?v_122)) (or (or ?v_188 ?v_124) ?v_83)) (or (or ?v_118 ?v_110) ?v_23)) (or (or ?v_157 P11) ?v_110)) (or (or ?v_44 P16) ?v_140)) (or (or ?v_95 P5) ?v_159)) (or (or ?v_161 ?v_100) ?v_129)) (or (or P12 ?v_179) ?v_67)) (or (or ?v_193 ?v_205) ?v_11)) (or (or ?v_89 ?v_56) ?v_182)) (or (or ?v_174 ?v_94) ?v_188)) (or (or ?v_46 P17) ?v_169)) (or (or ?v_50 ?v_57) P19)) (or (or ?v_155 ?v_177) ?v_172)) (or (or ?v_187 ?v_155) ?v_115)) (or (or ?v_212 ?v_65) P35)) (or (or ?v_156 ?v_11) ?v_157)) (or (or ?v_39 ?v_51) ?v_160)) (or (or ?v_187 ?v_61) ?v_114)) (or (or ?v_103 ?v_162) ?v_108)) (or (or ?v_137 ?v_132) ?v_58)) (or (or ?v_29 ?v_24) ?v_66)) (or (or ?v_211 ?v_182) P26)) (or (or P5 ?v_146) ?v_14)) (or (or ?v_132 ?v_80) ?v_92)) (or (or P4 ?v_127) ?v_66)) (or (or ?v_151 P34) ?v_140)) (or (or ?v_44 ?v_132) ?v_88)) (or (or ?v_143 ?v_115) ?v_177)) (or (or ?v_85 ?v_81) ?v_45)) (or (or ?v_61 ?v_203) P17)) (or (or P27 ?v_4) ?v_118)) (or (or ?v_21 ?v_119) ?v_33)) (or (or P26 ?v_126) ?v_168)) (or (or ?v_155 ?v_84) ?v_144)) (or (or ?v_87 ?v_168) ?v_2)) (or (or ?v_113 ?v_11) P15)) (or (or ?v_17 ?v_70) P30)) (or (or ?v_180 P11) P20)) (or (or ?v_163 ?v_154) ?v_147)) (or (or ?v_115 ?v_208) ?v_181)) (or (or ?v_24 ?v_25) P25)) (or (or P33 ?v_40) ?v_15)) (or (or ?v_22 ?v_190) ?v_29)) (or (or ?v_170 ?v_98) ?v_14)) (or (or ?v_119 ?v_180) ?v_80)) (or (or P39 P29) ?v_21)) (or (or ?v_186 ?v_213) P21)) (or (or ?v_88 P8) ?v_78)) (or (or ?v_56 ?v_116) ?v_147)) (or (or ?v_122 ?v_114) ?v_190)) (or (or P19 ?v_152) P39)) (or (or P30 ?v_85) ?v_143)) (or (or ?v_159 ?v_45) ?v_109)) (or (or ?v_179 ?v_117) ?v_63)) (or (or P33 ?v_47) ?v_112)) (or (or ?v_79 ?v_74) ?v_127)) (or (or ?v_177 P33) ?v_62)) (or (or ?v_40 ?v_48) ?v_100)) (or (or ?v_48 ?v_92) ?v_78)) (or (or ?v_71 ?v_176) ?v_143)) (or (or ?v_195 P20) ?v_119)) (or (or ?v_137 ?v_142) ?v_181)) (or (or ?v_207 P4) ?v_87)) (or (or ?v_38 ?v_148) ?v_21)) (or (or ?v_28 ?v_106) ?v_141)) (or (or ?v_135 ?v_76) ?v_160)) (or (or ?v_11 ?v_53) P38)) (or (or ?v_94 ?v_139) P9)) (or (or ?v_143 P8) ?v_105)) (or (or ?v_74 ?v_97) P7)) (or (or ?v_186 ?v_164) ?v_13)) (or (or ?v_213 P36) ?v_125)) (or (or ?v_155 ?v_101) ?v_169)) (or (or ?v_95 ?v_202) ?v_3)) (or (or P20 ?v_111) ?v_66)) (or (or ?v_35 ?v_192) ?v_203)) (or (or ?v_117 ?v_110) ?v_155)) (or (or ?v_56 ?v_159) ?v_161)) (or (or ?v_203 ?v_193) ?v_154)) (or (or ?v_214 P17) ?v_114)) (or (or ?v_166 ?v_171) ?v_8)) (or (or ?v_51 ?v_110) ?v_166)) (or (or P7 P3) P28)) (or (or ?v_95 ?v_24) ?v_36)) (or (or P12 ?v_152) ?v_9)) (or (or ?v_87 P16) ?v_201)) (or (or ?v_190 ?v_132) P5)) (or (or P17 ?v_5) ?v_96)) (or (or ?v_31 ?v_119) ?v_196)) (or (or ?v_30 ?v_57) ?v_153)) (or (or ?v_81 ?v_146) ?v_209)) (or (or ?v_132 ?v_116) ?v_70)) (or (or ?v_61 ?v_179) ?v_97))))))))))))))))))))))))))))))))))))))))))))
(check-sat)
(exit)
